benchmarks/bfuzz0/1188157301401327243966320779682127839.smt2
(set-logic QF_FP)
(declare-const x0 (_ FloatingPoint 11 53))
(declare-const x1 (_ FloatingPoint 11 53))
(declare-const x2 (_ FloatingPoint 11 53))
(declare-const x3 (_ FloatingPoint 11 53))
(declare-const x4 (_ FloatingPoint 11 53))
(declare-const x5 (_ FloatingPoint 11 53))
(declare-const x6 (_ FloatingPoint 11 53))
(assert (fp.eq (fp.neg x5) (fp.mul RNE x1 x0)))
(assert (fp.lt (fp.neg x6) (fp.mul RNE x3 x4)))
(assert (fp.geq (fp.add RNE x2 x5) (fp.add RNE x4 x1)))
(assert (fp.leq (fp.div RNE x4 x3) (fp.sub RNE x0 x3)))
(assert (fp.lt (fp.div RNE x4 x2) (fp.sub RNE x3 x3)))
(check-sat)
