db/data/1188157301401327243966320779682127839.z3.out
sat
-------------------
160.227810838
